Optimal - objective value 721096.00000000
      0 v(1)                   1                   10000
      1 v(2)                   1                    9000
      2 vLoad(2)              28                     350
      3 v(3)                   1                   10000
      4 vLoad(3)              26                     200
      5 v(4)                   1                   10000
      6 vLoad(4)              22                     300
      7 v(5)                   1                   -5500
      8 vLoad(5)              20                    3150
      9 v(6)                   1                    8250
     10 vLoad(6)              16                    1875
     11 v(7)                   1                    9000
     12 vLoad(7)              14                    1100
     13 v(8)                   1                    8250
     14 vLoad(8)              12                     700
     15 v(9)                   1                   10000
     16 vLoad(9)              10                    1050
     17 v(10)                  1                   10000
     18 C0000019              10                    1150
     19 v(11)                  1                    2750
     20 C0000021              10                    2375
     21 v(12)                  1                    5000
     22 C0000023              10                    3850
     23 v(13)                  1                    8992
     24 C0000025              10                    1704
     25 v(14)                  1                    5000
     26 C0000027              10                    4050
     27 v(15)                  1                       0
     28 C0000029              10                       0
     29 v(16)                  1                   10000
     30 C0000031              10                    4900
     31 v(17)                  1                   10000
     32 C0000033              10                    1600
     33 v(18)                  1                    5500
     34 C0000035              10                    3075
     35 v(19)                  1                   10000
     36 C0000037              10                    2050
     37 v(20)                  1                   10000
     38 C0000039               8                    1900
     39 v(21)                  1                   10000
     40 C0000041               8                    2000
     41 v(22)                  1                       0
     42 C0000043               8                    4850
     43 v(23)                  1                   10000
     44 C0000045               8                    2700
     45 v(24)                  1                   10000
     46 C0000047               6                    2300
     47 v(25)                  1                   10000
     48 C0000049               6                    2400
     49 v(26)                  1                   10000
     50 C0000051               6                    3004
     51 v(27)                  1                   10000
     52 C0000053               4                    3104
     53 v(28)                  1                   10000
     54 C0000055               2                    4075
     71 C0000072               1                    5500
    107 C0000108               1                     500
    139 C0000140               1         -34.0000000000005
    197 C0000198               1                   -4492
    236 C0000237               1         -7.99999999999941
    246 C0000247               1                    1000
    287 C0000288               1                   -2000
    338 C0000339               1                    1000
    353 C0000354               1                     -38
    389 C0000390               1                     -71
    426 C0000427               1                     -88
    479 C0000480               1                    1000
    498 C0000499               1                     -17
    547 C0000548               1         500.000000000001
    575 C0000576               1         1.35197196300706e-13
    629 C0000630               1         -9.46380374104939e-13
    645 C0000646               1                   -1750
    675 C0000676               1                     -80
    711 C0000712               1                     -85
    747 C0000748               1                     500
    783 C0000784               1                     -15
    828 C0000829               1                     500
    881 C0000882               1                   -2750
    904 C0000905               1                    5500
    927 C0000928               1                     500
    966 C0000967               1         -5.40788785202822e-13
   1005 C0001006               1                   -5500
   1044 C0001045               1                    1000
   1066 C0001067               1                    1000
   1100 C0001101               1                      -8
   1150 C0001151               1                   -4000
   1171 C0001172               1                     -14
   1209 C0001210               1                    -515
   1247 C0001248               1                    5000
   1281 C0001282               1                    1000
   1321 C0001322               1                   -4500
   1359 C0001360               1         3.41060513164848e-13
   1387 C0001388               1                       0
   1421 C0001422               1                    1000
   1473 C0001474               1                   -4500
   1492 C0001493               1                     -14
   1533 C0001534               1                   -4500
   1564 C0001565               1                       0
   1607 C0001608               1                       0
   1658 C0001659               1                    3484
   1672 C0001673               1                    1000
   1713 C0001714               1                   -1750
   1745 C0001746               1                   -4500
   1795 C0001796               1                   -1000
   1822 C0001823               1                    3500
   1850 C0001851               1                    5500
   1882 C0001883               1         5.40788785202822e-13
   1925 C0001926               1         500.000000000001
   1955 C0001956               1         1.13686837721616e-12
   1986 C0001987               1                    1000
   2022 C0002023               1                    1000
   2072 C0002073               1                   -1000
   2089 C0002090               1                    2750
   2140 C0002141               1                    1000
   2166 C0002167               1                    1000
   2217 C0002218               1                    1008
   2253 C0002254               1                    1008
   2278 C0002279               1                   -3000
   2304 C0002305               1                   -2750
   2350 C0002351               1                     500
   2386 C0002387               1                   -2250
   2410 C0002411               1                   -1000
   2454 C0002455               1                    1000
   2474 C0002475               1                      -5
   2527 C0002528               1         -2.27373675443232e-13
   2545 C0002546               1                     -29
   2594 C0002595               1                   -5000
   2635 C0002636               1         -1.35197196300706e-13
   2670 C0002671               1                    5500
   2689 C0002690               1                    1000
   2724 C0002725               1                    1000
   2760 C0002761               1                       0
   2793 C0002794               1                       0
   2828 C0002829               1                    1000
   2874 C0002875               1                   -4500
   2898 C0002899               1                   11000
   2951 C0002952               1                    1000
   2967 C0002968               1                     500
   3001 C0003002               1                    1000
   3044 C0003045               1                     500
   3074 C0003075               1                    1000
   3106 C0003107               1                    1000
   3142 C0003143               1                   11000
   3186 C0003187               1                    2750
   3229 C0003230               1                    2250
   3250 C0003251               1                   -5000
   3283 C0003284               1                   10000
   3327 C0003328               1                    4500
   3352 C0003353               1                   -1035
   3389 C0003390               1                     -35
   3428 C0003429               1                     -34
   3477 C0003478               1                    4492
   3522 C0003523               1         2.70394392601411e-13
   3535 C0003536               1                     -53
   3579 C0003580               1                    -500
   3624 C0003625               1                     508
   3667 C0003668               1         -7.99999999999968
   3677 C0003678               1                    4500
   3718 C0003719               1                    2750
   3746 C0003747               1                       0
   3784 C0003785               1                       0
   3818 C0003819               1                    1000
   3874 C0003875               1         -2.27373675443232e-13
   3900 C0003901               1                   -1016
   3923 C0003924               1                     -15
   3959 C0003960               1                     500
   4007 C0004008               1                   -7250
   4043 C0004044               1                   -5000
   4087 C0004088               1         2.70394392601411e-13
   4101 C0004102               1                     500
   4135 C0004136               1                     -13
   4174 C0004175               1                    5500
   4221 C0004222               1                     500
   4251 C0004252               1                       0
   4295 C0004296               1                    5500
   4337 C0004338               1                    1742
   4357 C0004358               1                   -5000
   4383 C0004384               1                    1000
   4416 C0004417               1                     -17
   4457 C0004458               1                    1000
   4492 C0004493               1                    1000
   4535 C0004536               1                   -5500
   4581 C0004582               1                    -500
   4594 C0004595               1                      -8
   4631 C0004632               1                       0
   4681 C0004682               1                   -3000
   4720 C0004721               1                     500
   4742 C0004743               1                    -500
   4772 C0004773               1                   -1009
   4825 C0004826               1         -1.35197196300706e-13
   4847 C0004848               1                    1000
   4904 C0004905               1                    1000
   4916 C0004917               1                     -30
   4952 C0004953               1                      -9
   5011 C0005012               1                     500
   5039 C0005040               1                    1000
   5062 C0005063               1                  -10000
   5104 C0005105               1                   -2750
   5142 C0005143               1         1.35197196300706e-13
   5177 C0005178               1                    1742
   5219 C0005220               1         -9.46380374104939e-13
   5241 C0005242               1         1.59161572810262e-12
   5277 C0005278               1                   -2750
   5311 C0005312               1                   -4500
   5343 C0005344               1                     -37
   5402 C0005403               1         1.35197196300706e-13
   5418 C0005419               1                   -1000
   5470 C0005471               1                   -4500
   5484 C0005485               1                     -37
   5528 C0005529               1                    -500
   5555 C0005556               1                      -8
   5602 C0005603               1                   -4500
   5712 C0005713               1                       0
   5713 C0005714               1                       0
   5714 C0005715               1                       0
   5717 C0005718               1                       0
   5718 C0005719               1                       0
   5719 C0005720               1                       0
   5720 C0005721               1                       0
   5721 C0005722               1                       0
   5722 C0005723               1                       0
   5723 C0005724               1                       0
   5724 C0005725               1                       0
   5725 C0005726               1                       0
   5726 C0005727               1                       0
   5727 C0005728               1                       0
   5728 C0005729               1                       0
   5729 C0005730               1                       0
   5730 C0005731               1                       0
   5731 C0005732               1                       0
   5732 C0005733               1                       0
   5733 C0005734               1                       0
   5734 C0005735               1                       0
   5735 C0005736               1                       0
   5736 C0005737               1                       0
   5737 C0005738               1                       0
   5738 C0005739               1                       0
   5739 C0005740               1                       0
   5740 C0005741               1                       0
   5741 C0005742               1                       0
   5742 C0005743               1                       0
   5743 C0005744               1                       0
   5744 C0005745               1                       0
   5745 C0005746               1                       0
   5746 C0005747               1                       0
   5749 C0005750               1                       0
   5750 C0005751               1                       0
   5751 C0005752               1                       0
   5752 C0005753               1                       0
   5753 C0005754               1                       0
   5754 C0005755               1                       0
   5756 C0005757               1                       0
   5757 C0005758               1                       0
   5758 vLoad(1)              28         -2.8421709430404e-13
